Version identifier: 22.1.0.0 | 2022-03-09 | 1a383f8ce
CPXPARAM_Threads                                 1
CPXPARAM_MIP_Strategy_VariableSelect             3
CPXPARAM_TimeLimit                               600
Tried aggregator 1 time.
Reduced MIP has 2720 rows, 10800 columns, and 83019 nonzeros.
Reduced MIP has 6600 binaries, 4200 generals, 0 SOSs, and 0 indicators.
Presolve time = 0.04 sec. (33.71 ticks)
Found incumbent of value 3.102000 after 0.11 sec. (83.51 ticks)
Probing time = 0.01 sec. (4.62 ticks)
Tried aggregator 1 time.
Detecting symmetries...
Reduced MIP has 2720 rows, 10800 columns, and 83019 nonzeros.
Reduced MIP has 6600 binaries, 4200 generals, 0 SOSs, and 0 indicators.
Presolve time = 0.05 sec. (41.93 ticks)
Probing time = 0.01 sec. (4.62 ticks)
Clique table members: 306.
MIP emphasis: balance optimality and feasibility.
MIP search method: dynamic search.
Parallel mode: none, using 1 thread.
Root relaxation solution time = 4.87 sec. (4674.94 ticks)

        Nodes                                         Cuts/
   Node  Left     Objective  IInf  Best Integer    Best Bound    ItCnt     Gap

*     0+    0                            3.1020        0.0000           100.00%
      0     0        0.0000  2461        3.1020        0.0000    10863  100.00%
*     0+    0                            0.5290        0.0000           100.00%
*     0+    0                            0.3330        0.0000           100.00%
      0     0  -1.00000e+75     0        0.3330        0.0000    10863  100.00%
Detecting symmetries...
      0     2        0.0000  1247        0.3330        0.0000    10863  100.00%
Elapsed time = 30.75 sec. (29634.25 ticks, tree = 0.01 MB, solutions = 3)
      1     3        0.0000  2205        0.3330        0.0000    28799  100.00%
      2     4        0.0000  2222        0.3330        0.0000    38959  100.00%
      3     5        0.0000  2336        0.3330        0.0000    49633  100.00%
      4     6        0.0000  2237        0.3330        0.0000    49679  100.00%
      5     7        0.0000  2247        0.3330        0.0000    50016  100.00%
      6     8        0.0000  2224        0.3330        0.0000    50062  100.00%
      7     9        0.0000  2211        0.3330        0.0000    60700  100.00%
      8    10        0.0000  2344        0.3330        0.0000    64015  100.00%
      9    11        0.0000  2258        0.3330        0.0000    64497  100.00%
     10    12        0.0000  2581        0.3330        0.0000    67741  100.00%
Elapsed time = 63.29 sec. (61192.53 ticks, tree = 0.14 MB, solutions = 3)
     12    14       -0.0000  2337        0.3330        0.0000    68721  100.00%
     13    15        0.0000  2285        0.3330        0.0000    68789  100.00%
     15    17       -0.0000  2305        0.3330        0.0000    69780  100.00%
     17    19       -0.0000  2304        0.3330        0.0000    71631  100.00%
     19    21       -0.0000  2301        0.3330        0.0000    73098  100.00%
     20    22        0.0000  2471        0.3330        0.0000    74413  100.00%
     22    24       -0.0000  2338        0.3330        0.0000    76219  100.00%
     24    26       -0.0000  2354        0.3330        0.0000    77323  100.00%
     25    27       -0.0000  2288        0.3330        0.0000    77329  100.00%
     27    29       -0.0000  2294        0.3330        0.0000    79788  100.00%
Elapsed time = 79.44 sec. (77546.91 ticks, tree = 0.57 MB, solutions = 3)
     29    31        0.0000  2300        0.3330        0.0000    81793  100.00%
     30    32        0.0000  2552        0.3330        0.0000    82808  100.00%
     32    34        0.0000  2271        0.3330        0.0000    83316  100.00%
     33    35        0.0000  2317        0.3330        0.0000    85914  100.00%
     35    37       -0.0000  2306        0.3330        0.0000    87142  100.00%
     37    39        0.0000  2329        0.3330        0.0000    88517  100.00%
     39    41        0.0000  2549        0.3330        0.0000    90677  100.00%
     41    43       -0.0000  2313        0.3330        0.0000    91759  100.00%
     43    45        0.0000  2328        0.3330        0.0000    93024  100.00%
     45    47        0.0000  2364        0.3330        0.0000    96315  100.00%
Elapsed time = 96.79 sec. (95042.65 ticks, tree = 0.98 MB, solutions = 3)
     47    49       -0.0000  2357        0.3330        0.0000    98777  100.00%
     48    50        0.0000  2256        0.3330        0.0000    98781  100.00%
     50    52        0.0000  2256        0.3330        0.0000   100122  100.00%
     52    54        0.0000  2258        0.3330        0.0000   101881  100.00%
     53    55        0.0000  2545        0.3330        0.0000   104558  100.00%
     55    57        0.0000  2439        0.3330        0.0000   105303  100.00%
     57    59       -0.0000  2339        0.3330        0.0000   108083  100.00%
     59    61        0.0000  2375        0.3330        0.0000   110273  100.00%
     61    63       -0.0000  2314        0.3330        0.0000   110625  100.00%
     63    65       -0.0000  2308        0.3330        0.0000   111471  100.00%
Elapsed time = 109.68 sec. (108281.84 ticks, tree = 1.41 MB, solutions = 3)
     65    67        0.0000  2297        0.3330        0.0000   113709  100.00%
     67    69        0.0000  2391        0.3330        0.0000   117091  100.00%
     69    71       -0.0000  2309        0.3330        0.0000   117385  100.00%
     71    73        0.0000  2359        0.3330        0.0000   118250  100.00%
     73    75        0.0000  2388        0.3330        0.0000   122537  100.00%
     75    77        0.0000  2269        0.3330        0.0000   123460  100.00%
     77    79        0.0000  2271        0.3330        0.0000   124665  100.00%
     79    81        0.0000  2272        0.3330        0.0000   126609  100.00%
     81    83       -0.0000  2311        0.3330        0.0000   127672  100.00%
     83    85        0.0000  2304        0.3330        0.0000   130065  100.00%
Elapsed time = 124.45 sec. (123631.85 ticks, tree = 1.92 MB, solutions = 3)
     84    86        0.0000  2336        0.3330        0.0000   131762  100.00%
     86    88       -0.0000  2381        0.3330        0.0000   132483  100.00%
     88    90        0.0000  2607        0.3330        0.0000   134417  100.00%
     90    92        0.0000  2381        0.3330        0.0000   136482  100.00%
     92    94       -0.0000  2356        0.3330        0.0000   138395  100.00%
     94    96       -0.0000  2359        0.3330        0.0000   140874  100.00%
     96    98        0.0000  2505        0.3330        0.0000   141471  100.00%
     97    99       -0.0000  2344        0.3330        0.0000   142339  100.00%
     99   101       -0.0000  2359        0.3330        0.0000   143681  100.00%
    100   102        0.0000  2362        0.3330        0.0000   146587  100.00%
Elapsed time = 136.60 sec. (136223.09 ticks, tree = 2.31 MB, solutions = 3)
    102   104        0.0000  2332        0.3330        0.0000   147413  100.00%
    103   105       -0.0000  2388        0.3330        0.0000   150301  100.00%
    105   107        0.0000  2401        0.3330        0.0000   151123  100.00%
    107   109        0.0000  2580        0.3330        0.0000   152663  100.00%
    109   111       -0.0000  2384        0.3330        0.0000   153056  100.00%
    111   113        0.0000  2383        0.3330        0.0000   153769  100.00%
    113   115       -0.0000  2361        0.3330        0.0000   155831  100.00%
    114   116        0.0000  2468        0.3330        0.0000   160256  100.00%
    116   118        0.0000  2346        0.3330        0.0000   162967  100.00%
    118   120       -0.0000  2346        0.3330        0.0000   163687  100.00%
Elapsed time = 149.46 sec. (149776.40 ticks, tree = 2.77 MB, solutions = 3)
    120   122        0.0000  2354        0.3330        0.0000   164793  100.00%
    122   124        0.0000  2377        0.3330        0.0000   165628  100.00%
    124   126        0.0000  2392        0.3330        0.0000   167762  100.00%
    126   128        0.0000  2334        0.3330        0.0000   170361  100.00%
    128   130       -0.0000  2323        0.3330        0.0000   172952  100.00%
    130   132        0.0000  2334        0.3330        0.0000   174826  100.00%
    132   134        0.0000  2341        0.3330        0.0000   176880  100.00%
    133   135        0.0000  2328        0.3330        0.0000   180642  100.00%
    134   136       -0.0000  2169        0.3330        0.0000   190344  100.00%
    136   138        0.0000  2235        0.3330        0.0000   192324  100.00%
Elapsed time = 167.04 sec. (167169.15 ticks, tree = 3.22 MB, solutions = 3)
    138   140       -0.0000  2235        0.3330        0.0000   193612  100.00%
    139   141        0.0000  2322        0.3330        0.0000   198960  100.00%
    140   142        0.0000  2231        0.3330        0.0000   198974  100.00%
    142   144       -0.0000  2257        0.3330        0.0000   200113  100.00%
    143   145       -0.0000  2232        0.3330        0.0000   201177  100.00%
    145   147        0.0000  2255        0.3330        0.0000   206772  100.00%
    147   149        0.0000  2211        0.3330        0.0000   207696  100.00%
    150   152        0.0000  2205        0.3330        0.0000   208541  100.00%
    152   154        0.0000  2282        0.3330        0.0000   214814  100.00%
    154   156       -0.0000  2206        0.3330        0.0000   215818  100.00%
Elapsed time = 192.33 sec. (191608.90 ticks, tree = 3.64 MB, solutions = 3)
    156   158       -0.0000  2216        0.3330        0.0000   216169  100.00%
    158   160        0.0000  2226        0.3330        0.0000   221681  100.00%
    160   162       -0.0000  2192        0.3330        0.0000   224189  100.00%
    162   164       -0.0000  2193        0.3330        0.0000   225159  100.00%
    164   166       -0.0000  2193        0.3330        0.0000   227980  100.00%
    166   168        0.0000  2245        0.3330        0.0000   230503  100.00%
    167   169       -0.0000  2204        0.3330        0.0000   236203  100.00%
    169   171       -0.0000  2230        0.3330        0.0000   236971  100.00%
    172   174        0.0000  2175        0.3330        0.0000   240049  100.00%
    173   175        0.0000  1861        0.3330        0.0000   259421  100.00%
Elapsed time = 222.18 sec. (219401.96 ticks, tree = 4.14 MB, solutions = 3)
    178   180       -0.0000  1918        0.3330        0.0000   268282  100.00%
    185   187        0.0000  1868        0.3330        0.0000   273244  100.00%
    191   193        0.0000  1661        0.3330        0.0000   294380  100.00%
    197   199        0.0000  1637        0.3330        0.0000   301315  100.00%
    201   203        0.0001  1609        0.3330        0.0000   321063  100.00%
    206   208        0.0002  1599        0.3330        0.0000   328914  100.00%
    210   212       -0.0000  1371        0.3330        0.0000   340903  100.00%
    215   217        0.0000  1244        0.3330        0.0000   354791  100.00%
    220   222        0.0003  1488        0.3330        0.0000   364645  100.00%
    227   229        0.0003  1505        0.3330        0.0000   372321  100.00%
Elapsed time = 275.09 sec. (272026.87 ticks, tree = 5.45 MB, solutions = 3)
    235   237        0.0010  1399        0.3330        0.0000   379894  100.00%
    243   245        0.0010  1490        0.3330        0.0000   387732  100.00%
    249   251        0.0001  1447        0.3330        0.0000   394613  100.00%
    256   258        0.0010  1456        0.3330        0.0000   404445  100.00%
    262   264        0.0005  1449        0.3330        0.0000   414053  100.00%
    268   270        0.0005  1270        0.3330        0.0000   422810  100.00%
    273   275        0.0010  1236        0.3330        0.0000   432350  100.00%
    280   282        0.0010  1261        0.3330        0.0000   441416  100.00%
    287   289        0.0010  1025        0.3330        0.0000   452387  100.00%
    293   295        0.0010   994        0.3330        0.0000   462110  100.00%
Elapsed time = 317.58 sec. (314553.07 ticks, tree = 7.12 MB, solutions = 3)
    296   298        0.0011   908        0.3330        0.0000   491760  100.00%
    300   302        0.0011   616        0.3330        0.0000   500347  100.00%
    306   308        0.0020   508        0.3330        0.0000   509533  100.00%
    312   314        0.0020   625        0.3330        0.0000   519672  100.00%
    319   321        0.0020   431        0.3330        0.0000   528246  100.00%
    327   329        0.0030   445        0.3330        0.0000   535823  100.00%
    334   336        0.0020   301        0.3330        0.0000   544312  100.00%
*   340+  327                            0.0030        0.0000           100.00%
    340   329        0.0020   337        0.0030        0.0000   549374  100.00%
    348   336        0.0020   302        0.0030        0.0000   556743  100.00%
    356   342        0.0020   266        0.0030        0.0000   566342  100.00%
Elapsed time = 370.71 sec. (360179.32 ticks, tree = 8.30 MB, solutions = 4)
*   360+  281                            0.0020        0.0000           100.00%
    362   282        0.0000  1265        0.0020        0.0000   574414  100.00%
    366   286        0.0010  1164        0.0020        0.0000   586857  100.00%
    369   287    infeasible              0.0020        0.0000   604466  100.00%
    372   290        0.0010   918        0.0020        0.0000   617285  100.00%
    379   294        0.0010   966        0.0020        0.0000   631572  100.00%
    382   295       -0.0000  1263        0.0020        0.0000   646339  100.00%
    384   297       -0.0000   992        0.0020        0.0000   664174  100.00%
    388   301        0.0005   970        0.0020        0.0000   674055  100.00%
    392   305        0.0005   974        0.0020        0.0000   681409  100.00%
    397   310        0.0010  1079        0.0020        0.0000   696151  100.00%
Elapsed time = 427.57 sec. (409943.03 ticks, tree = 7.51 MB, solutions = 5)
    402   315       -0.0000   978        0.0020        0.0000   719222  100.00%
    404   316        0.0010  1409        0.0020        0.0000   731382  100.00%
    413   323        0.0010  1455        0.0020        0.0000   734500  100.00%
    424   331        0.0010  1281        0.0020        0.0000   739288  100.00%
    435   341        0.0010  1035        0.0020        0.0000   745042  100.00%
    448   354        0.0010   985        0.0020        0.0000   752182  100.00%
    460   365        0.0010   717        0.0020        0.0000   758764  100.00%
    471   373       -0.0000  1068        0.0020        0.0000   767549  100.00%
    473   375        0.0000   955        0.0020        0.0000   782533  100.00%
    474   376        0.0005  1193        0.0020        0.0000   788210  100.00%
Elapsed time = 510.21 sec. (482456.71 ticks, tree = 9.33 MB, solutions = 5)

Performing restart 1

Repeating presolve.
Tried aggregator 1 time.
MIP Presolve modified 52965 coefficients.
Reduced MIP has 2720 rows, 10800 columns, and 64940 nonzeros.
Reduced MIP has 6600 binaries, 4200 generals, 0 SOSs, and 0 indicators.
Presolve time = 0.08 sec. (66.48 ticks)
Tried aggregator 1 time.
Reduced MIP has 2720 rows, 10800 columns, and 64940 nonzeros.
Reduced MIP has 6602 binaries, 4198 generals, 0 SOSs, and 0 indicators.
Presolve time = 0.05 sec. (35.61 ticks)
Represolve time = 0.19 sec. (146.00 ticks)
    475     0        0.0000  2138        0.0020   ZeroHalf: 2   810077  100.00%
    475     0        0.0000   376        0.0020   ZeroHalf: 1   810479  100.00%
    475     0        0.0000  1168        0.0020      Cuts: 75   818394  100.00%
    475     2        0.0000   276        0.0020        0.0000   818394  100.00%

Root node processing (before b&c):
  Real time             =   30.72 sec. (29609.64 ticks)
Sequential b&c:
  Real time             =  569.29 sec. (537134.94 ticks)
                          ------------
Total (root+branch&cut) =  600.00 sec. (566744.58 ticks)
Primal number of violations:	0.002
Dual number of violations:	0
Status:	Feasible
Time:	599.92
Sequence:
	1
	2
	15
	18
	11
	6
	2
	6
	11
	0
	4
	15
	3
	14
	8
	18
	1
	7
	12
	0
	19
	9
	14
	0
	1
	0
	7
	6
	3
	15
	2
	4
	1
	9
	2
	18
	1
	12
	7
	0
	4
	1
	2
	5
	8
	19
	14
	0
	6
	11
	0
	7
	12
	3
	9
	14
	0
	11
	12
	7
	6
	17
	7
	12
	13
	19
	12
	9
	16
	3
	6
	15
	13
	11
	0
	6
	15
	11
	13
	0
	5
	1
	7
	8
	0
	1
	14
	9
	0
	3
	14
	15
	4
	17
	18
	5
	2
	1
	8
	18
	14
	11
	0
	12
	7
	6
	3
	8
	10
	18
	1
	4
	2
	15
	3
	6
	7
	8
	12
	3
	5
	4
	2
	6
	11
	0
	14
	8
	1
	18
	2
	5
	17
	14
	13
	8
	19
	10
	14
	9
	8
	3
	10
	6
	4
	2
	11
	15
	6
	13
	16
	19
	5
	12
	9
	19
	2
	4
	10
	19
	6
	16
	13
	19
	12
	14
	16
	19
	9
	10
	14
	17
	4
	7
	12
	3
	15
	18
	18
	1
	16
	12
	18
	3
	5
	16
	15
	11
	4
	7
	12
	17
	6
	7
	13
	17
	15
	14
	13
	19
	0
	10
	6
	3
	9
	2
	4
	1
	15
	18
	16
	11
	6
	12
	7
	3
	8
	6
	12
	3
	7
	8
	5
	17
	14
	18
	8
	1
	2
	5
	4
	3
	10
	8
	6
	3
	18
	15
	16
	1
	18
	18
	12
	17
	14
	7
	4
	17
	10
	14
	9
	19
	16
	12
	14
	19
	18
	2
	8
	1
	5
	13
	8
	19
	10
	14
	9
	19
	2
	10
	6
	19
	18
	16
	15
	11
	6
	7
	17
	12
	13
	14
	19
	12
	16
	18
	1
	18
	12
	16
	11
	6
	18
	15
	17
	13
	6
	7
	17
	10
